6689
6578
6611
6641
6731
6641
6570
6624
6693
6590
6643
6655
6587
6674
6712
6654
6616
6673
6688
6617
6685
6711
6701
6672
6682
6694
6598
6565
6579
6641
6654
6680
6646
6633
6615
6683
6553
6815
6697
6609
6681
6585
6744
6605
6656
6715
6748
6527
6613
6695
6571
6648
6687
6686
6732
6581
6695
6715
6661
6630
6735
6663
6614
6674
6736
6734
6610
6763
6662
6587
6686
6641
6678
6686
6646
6605
6736
6689
6550
6648
6670
6732
6753
6631
6842
6745
6695
6593
6635
6620
6736
6748
6573
6739
6587
6612
6719
6735
6613
6678
